joueur/fichiers_cnf/map5.cnf
c map5.map
p cnf 180 1279
-3 -4 0
-3 -5 0
-4 -5 0
-1 -2 0
-2 -5 0
-1 -4 0
-5 1 0
-4 2 0
-33 -34 0
-33 -35 0
-34 -35 0
-31 -32 0
-32 -35 0
-31 -34 0
-35 31 0
-34 32 0
-63 -64 0
-63 -65 0
-64 -65 0
-61 -62 0
-62 -65 0
-61 -64 0
-65 61 0
-64 62 0
-93 -94 0
-93 -95 0
-94 -95 0
-91 -92 0
-92 -95 0
-91 -94 0
-95 91 0
-94 92 0
-123 -124 0
-123 -125 0
-124 -125 0
-121 -122 0
-122 -125 0
-121 -124 0
-125 121 0
-124 122 0
-153 -154 0
-153 -155 0
-154 -155 0
-151 -152 0
-152 -155 0
-151 -154 0
-155 151 0
-154 152 0
-9 -10 0
-9 -11 0
-10 -11 0
-7 -8 0
-8 -11 0
-7 -10 0
-11 7 0
-10 8 0
-39 -40 0
-39 -41 0
-40 -41 0
-37 -38 0
-38 -41 0
-37 -40 0
-41 37 0
-40 38 0
-69 -70 0
-69 -71 0
-70 -71 0
-67 -68 0
-68 -71 0
-67 -70 0
-71 67 0
-70 68 0
-99 -100 0
-99 -101 0
-100 -101 0
-97 -98 0
-98 -101 0
-97 -100 0
-101 97 0
-100 98 0
-129 -130 0
-129 -131 0
-130 -131 0
-127 -128 0
-128 -131 0
-127 -130 0
-131 127 0
-130 128 0
-159 -160 0
-159 -161 0
-160 -161 0
-157 -158 0
-158 -161 0
-157 -160 0
-161 157 0
-160 158 0
-15 -16 0
-15 -17 0
-16 -17 0
-13 -14 0
-14 -17 0
-13 -16 0
-17 13 0
-16 14 0
-45 -46 0
-45 -47 0
-46 -47 0
-43 -44 0
-44 -47 0
-43 -46 0
-47 43 0
-46 44 0
-75 -76 0
-75 -77 0
-76 -77 0
-73 -74 0
-74 -77 0
-73 -76 0
-77 73 0
-76 74 0
-105 -106 0
-105 -107 0
-106 -107 0
-103 -104 0
-104 -107 0
-103 -106 0
-107 103 0
-106 104 0
-135 -136 0
-135 -137 0
-136 -137 0
-133 -134 0
-134 -137 0
-133 -136 0
-137 133 0
-136 134 0
-165 -166 0
-165 -167 0
-166 -167 0
-163 -164 0
-164 -167 0
-163 -166 0
-167 163 0
-166 164 0
-21 -22 0
-21 -23 0
-22 -23 0
-19 -20 0
-20 -23 0
-19 -22 0
-23 19 0
-22 20 0
-51 -52 0
-51 -53 0
-52 -53 0
-49 -50 0
-50 -53 0
-49 -52 0
-53 49 0
-52 50 0
-81 -82 0
-81 -83 0
-82 -83 0
-79 -80 0
-80 -83 0
-79 -82 0
-83 79 0
-82 80 0
-111 -112 0
-111 -113 0
-112 -113 0
-109 -110 0
-110 -113 0
-109 -112 0
-113 109 0
-112 110 0
-141 -142 0
-141 -143 0
-142 -143 0
-139 -140 0
-140 -143 0
-139 -142 0
-143 139 0
-142 140 0
-171 -172 0
-171 -173 0
-172 -173 0
-169 -170 0
-170 -173 0
-169 -172 0
-173 169 0
-172 170 0
-27 -28 0
-27 -29 0
-28 -29 0
-25 -26 0
-26 -29 0
-25 -28 0
-29 25 0
-28 26 0
-57 -58 0
-57 -59 0
-58 -59 0
-55 -56 0
-56 -59 0
-55 -58 0
-59 55 0
-58 56 0
-87 -88 0
-87 -89 0
-88 -89 0
-85 -86 0
-86 -89 0
-85 -88 0
-89 85 0
-88 86 0
-117 -118 0
-117 -119 0
-118 -119 0
-115 -116 0
-116 -119 0
-115 -118 0
-119 115 0
-118 116 0
-147 -148 0
-147 -149 0
-148 -149 0
-145 -146 0
-146 -149 0
-145 -148 0
-149 145 0
-148 146 0
-177 -178 0
-177 -179 0
-178 -179 0
-175 -176 0
-176 -179 0
-175 -178 0
-179 175 0
-178 176 0
-141 0
-142 0
-143 0
-142 0
-143 0
-141 0
-142 0
-143 0
-141 0
139 0
-140 0
-105 0
-135 0
-165 0
-111 0
-171 0
-117 0
-147 0
-177 0
106 136 166 112 172 118 148 178 0
-106 -136 0
-106 -166 0
-106 -112 0
-106 -172 0
-106 -118 0
-106 -148 0
-106 -178 0
-136 -166 0
-136 -112 0
-136 -172 0
-136 -118 0
-136 -148 0
-136 -178 0
-166 -112 0
-166 -172 0
-166 -118 0
-166 -148 0
-166 -178 0
-112 -172 0
-112 -118 0
-112 -148 0
-112 -178 0
-172 -118 0
-172 -148 0
-172 -178 0
-118 -148 0
-118 -178 0
-148 -178 0
-107 0
-137 0
-167 0
-113 0
-173 0
-119 0
-149 0
-179 0
-103 0
104 0
133 0
-134 0
163 0
-164 0
-109 0
110 0
169 0
-170 0
115 0
-116 0
-145 0
146 0
175 0
-176 0
-178 0
-179 0
-177 0
-178 0
-179 0
-177 0
-141 0
-171 0
-147 0
142 172 148 0
-142 -172 0
-142 -148 0
-172 -148 0
-143 0
-173 0
-149 0
148 0
-149 0
-147 0
-118 0
-119 0
-117 0
-118 0
-119 0
-117 0
-81 0
-111 0
-141 0
-87 0
-147 0
82 112 142 88 148 0
-82 -112 0
-82 -142 0
-82 -88 0
-82 -148 0
-112 -142 0
-112 -88 0
-112 -148 0
-142 -88 0
-142 -148 0
-88 -148 0
-83 0
-113 0
-143 0
-89 0
-149 0
79 0
-80 0
85 0
-86 0
-88 0
-89 0
-87 0
-88 0
-89 0
-87 0
-51 0
-81 0
-111 0
-57 0
-117 0
-52 0
-82 0
-112 0
-58 0
-118 0
-53 0
-83 0
-113 0
-59 0
-119 0
49 0
-50 0
55 0
-56 0
-58 0
-59 0
-57 0
-58 0
-59 0
-57 0
-21 0
-51 0
-81 0
-27 0
-87 0
-22 0
-52 0
-82 0
-28 0
-88 0
23 53 83 29 89 0
-23 -53 0
-23 -83 0
-23 -29 0
-23 -89 0
-53 -83 0
-53 -29 0
-53 -89 0
-83 -29 0
-83 -89 0
-29 -89 0
19 0
-20 0
25 0
-26 0
-52 0
-53 0
-51 0
-52 0
-53 0
-51 0
-15 0
-45 0
-75 0
-21 0
-81 0
-27 0
-57 0
-87 0
-16 0
-46 0
-76 0
-22 0
-82 0
-28 0
-58 0
-88 0
17 47 77 23 83 29 59 0
17 47 77 23 83 29 89 0
17 47 77 23 83 59 89 0
17 47 77 23 29 59 89 0
17 47 77 83 29 59 89 0
17 47 23 83 29 59 89 0
17 77 23 83 29 59 89 0
47 77 23 83 29 59 89 0
-17 -47 -77 0
-17 -47 -23 0
-17 -47 -83 0
-17 -47 -29 0
-17 -47 -59 0
-17 -47 -89 0
-17 -77 -23 0
-17 -77 -83 0
-17 -77 -29 0
-17 -77 -59 0
-17 -77 -89 0
-17 -23 -83 0
-17 -23 -29 0
-17 -23 -59 0
-17 -23 -89 0
-17 -83 -29 0
-17 -83 -59 0
-17 -83 -89 0
-17 -29 -59 0
-17 -29 -89 0
-17 -59 -89 0
-47 -77 -23 0
-47 -77 -83 0
-47 -77 -29 0
-47 -77 -59 0
-47 -77 -89 0
-47 -23 -83 0
-47 -23 -29 0
-47 -23 -59 0
-47 -23 -89 0
-47 -83 -29 0
-47 -83 -59 0
-47 -83 -89 0
-47 -29 -59 0
-47 -29 -89 0
-47 -59 -89 0
-77 -23 -83 0
-77 -23 -29 0
-77 -23 -59 0
-77 -23 -89 0
-77 -83 -29 0
-77 -83 -59 0
-77 -83 -89 0
-77 -29 -59 0
-77 -29 -89 0
-77 -59 -89 0
-23 -83 -29 0
-23 -83 -59 0
-23 -83 -89 0
-23 -29 -59 0
-23 -29 -89 0
-23 -59 -89 0
-83 -29 -59 0
-83 -29 -89 0
-83 -59 -89 0
-29 -59 -89 0
-13 0
14 0
43 0
-44 0
-73 0
74 0
-76 0
-77 0
-75 0
-76 0
-77 0
-75 0
39 69 99 45 105 51 81 111 0
-39 -69 0
-39 -99 0
-39 -45 0
-39 -105 0
-39 -51 0
-39 -81 0
-39 -111 0
-69 -99 0
-69 -45 0
-69 -105 0
-69 -51 0
-69 -81 0
-69 -111 0
-99 -45 0
-99 -105 0
-99 -51 0
-99 -81 0
-99 -111 0
-45 -105 0
-45 -51 0
-45 -81 0
-45 -111 0
-105 -51 0
-105 -81 0
-105 -111 0
-51 -81 0
-51 -111 0
-81 -111 0
-40 0
-70 0
-100 0
-46 0
-106 0
-52 0
-82 0
-112 0
41 71 101 47 107 53 83 113 0
-41 -71 0
-41 -101 0
-41 -47 0
-41 -107 0
-41 -53 0
-41 -83 0
-41 -113 0
-71 -101 0
-71 -47 0
-71 -107 0
-71 -53 0
-71 -83 0
-71 -113 0
-101 -47 0
-101 -107 0
-101 -53 0
-101 -83 0
-101 -113 0
-47 -107 0
-47 -53 0
-47 -83 0
-47 -113 0
-107 -53 0
-107 -83 0
-107 -113 0
-53 -83 0
-53 -113 0
-83 -113 0
37 0
-38 0
-67 0
68 0
-97 0
98 0
47 0
-46 0
-45 0
-16 0
-17 0
-15 0
-16 0
-17 0
-15 0
-9 0
-39 0
-45 0
-21 0
-51 0
-10 0
-40 0
-46 0
-22 0
-52 0
11 41 47 23 53 0
-11 -41 0
-11 -47 0
-11 -23 0
-11 -53 0
-41 -47 0
-41 -23 0
-41 -53 0
-47 -23 0
-47 -53 0
-23 -53 0
7 0
-8 0
-10 0
-11 0
-9 0
-10 0
-11 0
-9 0
-3 0
-33 0
-39 0
-15 0
-45 0
-4 0
-34 0
-40 0
-16 0
-46 0
5 35 41 17 47 0
-5 -35 0
-5 -41 0
-5 -17 0
-5 -47 0
-35 -41 0
-35 -17 0
-35 -47 0
-41 -17 0
-41 -47 0
-17 -47 0
1 0
-2 0
31 0
-32 0
-34 0
-35 0
-33 0
-34 0
-35 0
-33 0
-3 0
-63 0
-9 0
-39 0
-69 0
-4 0
-64 0
-10 0
-40 0
-70 0
-5 0
-65 0
-11 0
-41 0
-71 0
-61 0
62 0
-64 0
-65 0
-63 0
-64 0
-65 0
-63 0
33 93 39 69 99 0
-33 -93 0
-33 -39 0
-33 -69 0
-33 -99 0
-93 -39 0
-93 -69 0
-93 -99 0
-39 -69 0
-39 -99 0
-69 -99 0
-34 0
-94 0
-40 0
-70 0
-100 0
-35 0
-95 0
-41 0
-71 0
-101 0
-91 0
92 0
-94 0
-95 0
-93 0
-94 0
-95 0
-93 0
63 123 69 99 129 0
-63 -123 0
-63 -69 0
-63 -99 0
-63 -129 0
-123 -69 0
-123 -99 0
-123 -129 0
-69 -99 0
-69 -129 0
-99 -129 0
-64 0
-124 0
-70 0
-100 0
-130 0
-65 0
-125 0
-71 0
-101 0
-131 0
-121 0
122 0
-127 0
128 0
-130 0
-131 0
-129 0
-130 0
-131 0
-129 0
93 123 153 99 159 105 135 165 0
-93 -123 0
-93 -153 0
-93 -99 0
-93 -159 0
-93 -105 0
-93 -135 0
-93 -165 0
-123 -153 0
-123 -99 0
-123 -159 0
-123 -105 0
-123 -135 0
-123 -165 0
-153 -99 0
-153 -159 0
-153 -105 0
-153 -135 0
-153 -165 0
-99 -159 0
-99 -105 0
-99 -135 0
-99 -165 0
-159 -105 0
-159 -135 0
-159 -165 0
-105 -135 0
-105 -165 0
-135 -165 0
-94 0
-124 0
-154 0
-100 0
-160 0
-106 0
-136 0
-166 0
-95 0
-125 0
-155 0
-101 0
-161 0
-107 0
-137 0
-167 0
-151 0
152 0
-157 0
158 0
-160 0
-161 0
-159 0
-160 0
-161 0
-159 0
-123 0
-153 0
-129 0
-135 0
-165 0
-124 0
-154 0
-130 0
-136 0
-166 0
-125 0
-155 0
-131 0
-137 0
-167 0
-154 0
-155 0
-153 0
-154 0
-155 0
-153 0
-123 0
-129 0
-159 0
-124 0
-130 0
-160 0
-125 0
-131 0
-161 0
-124 0
-125 0
-123 0
-124 0
-125 0
-123 0
93 153 99 129 159 0
-93 -153 0
-93 -99 0
-93 -129 0
-93 -159 0
-153 -99 0
-153 -129 0
-153 -159 0
-99 -129 0
-99 -159 0
-129 -159 0
-94 0
-154 0
-100 0
-130 0
-160 0
-95 0
-155 0
-101 0
-131 0
-161 0
-4 0
-5 0
-3 0
-4 0
-5 0
-3 0
-33 0
-9 0
-39 0
-34 0
-10 0
-40 0
-35 0
-11 0
-41 0
99 0
-100 0
-101 0
-70 0
-71 0
-69 0
-70 0
-71 0
-69 0
33 63 93 39 99 45 75 105 0
-33 -63 0
-33 -93 0
-33 -39 0
-33 -99 0
-33 -45 0
-33 -75 0
-33 -105 0
-63 -93 0
-63 -39 0
-63 -99 0
-63 -45 0
-63 -75 0
-63 -105 0
-93 -39 0
-93 -99 0
-93 -45 0
-93 -75 0
-93 -105 0
-39 -99 0
-39 -45 0
-39 -75 0
-39 -105 0
-99 -45 0
-99 -75 0
-99 -105 0
-45 -75 0
-45 -105 0
-75 -105 0
-34 0
-64 0
-94 0
-40 0
-100 0
-46 0
-76 0
-106 0
35 65 95 41 101 47 77 107 0
-35 -65 0
-35 -95 0
-35 -41 0
-35 -101 0
-35 -47 0
-35 -77 0
-35 -107 0
-65 -95 0
-65 -41 0
-65 -101 0
-65 -47 0
-65 -77 0
-65 -107 0
-95 -41 0
-95 -101 0
-95 -47 0
-95 -77 0
-95 -107 0
-41 -101 0
-41 -47 0
-41 -77 0
-41 -107 0
-101 -47 0
-101 -77 0
-101 -107 0
-47 -77 0
-47 -107 0
-77 -107 0
-40 0
-41 0
-39 0
-40 0
-41 0
-39 0
-3 0
-33 0
-63 0
-9 0
-69 0
-15 0
-45 0
-75 0
-4 0
-34 0
-64 0
-10 0
-70 0
-16 0
-46 0
-76 0
5 35 65 11 71 17 47 77 0
-5 -35 0
-5 -65 0
-5 -11 0
-5 -71 0
-5 -17 0
-5 -47 0
-5 -77 0
-35 -65 0
-35 -11 0
-35 -71 0
-35 -17 0
-35 -47 0
-35 -77 0
-65 -11 0
-65 -71 0
-65 -17 0
-65 -47 0
-65 -77 0
-11 -71 0
-11 -17 0
-11 -47 0
-11 -77 0
-71 -17 0
-71 -47 0
-71 -77 0
-17 -47 0
-17 -77 0
-47 -77 0
29 0
-28 0
-27 0
-22 0
-23 0
-21 0
-22 0
-23 0
-21 0
-15 0
-45 0
-51 0
-27 0
-57 0
-16 0
-46 0
-52 0
-28 0
-58 0
17 47 53 29 0
17 47 53 59 0
17 47 29 59 0
17 53 29 59 0
47 53 29 59 0
-17 -47 -53 0
-17 -47 -29 0
-17 -47 -59 0
-17 -53 -29 0
-17 -53 -59 0
-17 -29 -59 0
-47 -53 -29 0
-47 -53 -59 0
-47 -29 -59 0
-53 -29 -59 0
-82 0
-83 0
-81 0
-82 0
-83 0
-81 0
-45 0
-75 0
-105 0
-51 0
-111 0
-57 0
-87 0
-117 0
-46 0
-76 0
-106 0
-52 0
-112 0
-58 0
-88 0
-118 0
47 77 107 53 113 59 89 119 0
-47 -77 0
-47 -107 0
-47 -53 0
-47 -113 0
-47 -59 0
-47 -89 0
-47 -119 0
-77 -107 0
-77 -53 0
-77 -113 0
-77 -59 0
-77 -89 0
-77 -119 0
-107 -53 0
-107 -113 0
-107 -59 0
-107 -89 0
-107 -119 0
-53 -113 0
-53 -59 0
-53 -89 0
-53 -119 0
-113 -59 0
-113 -89 0
-113 -119 0
-59 -89 0
-59 -119 0
-89 -119 0
-172 0
-173 0
-171 0
-172 0
-173 0
-171 0
-135 0
-165 0
-141 0
-147 0
-177 0
136 166 142 148 178 0
-136 -166 0
-136 -142 0
-136 -148 0
-136 -178 0
-166 -142 0
-166 -148 0
-166 -178 0
-142 -148 0
-142 -178 0
-148 -178 0
-137 0
-167 0
-143 0
-149 0
-179 0
-112 0
-113 0
-111 0
-112 0
-113 0
-111 0
-75 0
-105 0
-135 0
-81 0
-141 0
-87 0
-117 0
-147 0
76 106 136 82 142 88 118 148 0
-76 -106 0
-76 -136 0
-76 -82 0
-76 -142 0
-76 -88 0
-76 -118 0
-76 -148 0
-106 -136 0
-106 -82 0
-106 -142 0
-106 -88 0
-106 -118 0
-106 -148 0
-136 -82 0
-136 -142 0
-136 -88 0
-136 -118 0
-136 -148 0
-82 -142 0
-82 -88 0
-82 -118 0
-82 -148 0
-142 -88 0
-142 -118 0
-142 -148 0
-88 -118 0
-88 -148 0
-118 -148 0
-77 0
-107 0
-137 0
-83 0
-143 0
-89 0
-119 0
-149 0
-166 0
-167 0
-165 0
-166 0
-167 0
-165 0
-129 0
-159 0
-135 0
-141 0
-171 0
-130 0
-160 0
-136 0
-142 0
-172 0
-131 0
-161 0
-137 0
-143 0
-173 0
-136 0
-137 0
-135 0
-136 0
-137 0
-135 0
99 129 159 105 165 111 141 171 0
-99 -129 0
-99 -159 0
-99 -105 0
-99 -165 0
-99 -111 0
-99 -141 0
-99 -171 0
-129 -159 0
-129 -105 0
-129 -165 0
-129 -111 0
-129 -141 0
-129 -171 0
-159 -105 0
-159 -165 0
-159 -111 0
-159 -141 0
-159 -171 0
-105 -165 0
-105 -111 0
-105 -141 0
-105 -171 0
-165 -111 0
-165 -141 0
-165 -171 0
-111 -141 0
-111 -171 0
-141 -171 0
-100 0
-130 0
-160 0
-106 0
-166 0
-112 0
-142 0
-172 0
-101 0
-131 0
-161 0
-107 0
-167 0
-113 0
-143 0
-173 0
-106 0
-107 0
-105 0
-106 0
-107 0
-105 0
69 99 129 75 135 81 111 141 0
-69 -99 0
-69 -129 0
-69 -75 0
-69 -135 0
-69 -81 0
-69 -111 0
-69 -141 0
-99 -129 0
-99 -75 0
-99 -135 0
-99 -81 0
-99 -111 0
-99 -141 0
-129 -75 0
-129 -135 0
-129 -81 0
-129 -111 0
-129 -141 0
-75 -135 0
-75 -81 0
-75 -111 0
-75 -141 0
-135 -81 0
-135 -111 0
-135 -141 0
-81 -111 0
-81 -141 0
-111 -141 0
-70 0
-100 0
-130 0
-76 0
-136 0
-82 0
-112 0
-142 0
-71 0
-101 0
-131 0
-77 0
-137 0
-83 0
-113 0
-143 0
